<number of tasks>
50

<cycle time>
1000

<order strength>
0.901


<task times>
1 259
2 155
3 124
4 123
5 135
6 119
7 49
8 220
9 191
10 26
11 91
12 240
13 350
14 31
15 73
16 33
17 217
18 108
19 249
20 129
21 173
22 202
23 213
24 118
25 127
26 73
27 77
28 38
29 202
30 79
31 23
32 136
33 93
34 73
35 43
36 70
37 103
38 133
39 256
40 175
41 149
42 92
43 209
44 84
45 124
46 94
47 96
48 95
49 21
50 55

<precedence relations>
1,4
2,4
2,5
3,4
4,6
4,7
5,6
5,7
6,8
6,9
7,8
7,9
8,10
8,11
8,12
8,13
9,10
9,11
9,12
9,13
10,14
10,15
10,16
11,14
11,15
11,16
12,14
12,15
13,14
14,17
14,18
15,19
16,17
16,18
17,20
17,21
18,20
18,21
19,22
19,23
20,26
21,24
22,24
22,25
22,26
23,24
23,25
23,26
24,27
24,28
25,28
26,27
26,29
26,30
27,32
27,33
27,34
28,29
28,30
29,31
29,32
29,33
29,34
30,31
30,32
30,33
30,34
31,35
31,36
32,37
32,38
32,39
32,40
33,35
33,36
34,35
35,37
35,40
36,38
36,39
36,40
37,41
38,41
40,41
41,42
41,43
41,44
41,45
42,46
42,47
43,47
44,46
44,49
46,50
47,48
47,49

<end>
